17
85
8
48
74
40
11
77
83
81
94
14
28
6
79
0
5
35
52
50
54
43
44
42
72
33
9
49
78
90
32
57
39
68
10
15
21
87
67
13
34
76
12
70
4
92
23
88
56
20
25
71
41
53
80
75
29
36
73
45
27
62
97
82
26
59
65
95
96
89
1
18
3
99
46
63
66
22
86
91
84
64
47
31
38
60
58
7
69
55
16
30
93
37
24
51
2
19
61
98
